(declare-rel fail ())
(declare-rel inv2 (Int Int Int Int Int))
(declare-var A Int)
(declare-var B Int)
(declare-var C Int)
(declare-var D Int)
(declare-var E Int)
(declare-var F Int)
(declare-var G Int)
(rule (=> (and (= F B) (= G (- B)) (= C A) (= 1 B) (= 5143523 A)) (inv2 F G C B A)))
(rule (let ((a!1 (and (inv2 F G C B A)
                (= D (- (+ F F)))
                (= E (ite (< F 0) (* 4 G) G)))))
  (=> a!1 (inv2 D E C B A))))
(rule (let ((a!1 (and (inv2 F G C B A) (> F C) (not (= 0 (+ F G))))))
  (=> a!1 fail)))
(query fail)

